c generated by sgen
p cnf 65 140
-2 -3 -4 0
-1 -3 -4 0
-1 -2 -4 0
-1 -2 -3 0
-6 -7 -8 0
-5 -7 -8 0
-5 -6 -8 0
-5 -6 -7 0
-10 -11 -12 0
-9 -11 -12 0
-9 -10 -12 0
-9 -10 -11 0
-14 -15 -16 0
-13 -15 -16 0
-13 -14 -16 0
-13 -14 -15 0
-18 -19 -20 0
-17 -19 -20 0
-17 -18 -20 0
-17 -18 -19 0
-22 -23 -24 0
-21 -23 -24 0
-21 -22 -24 0
-21 -22 -23 0
-26 -27 -28 0
-25 -27 -28 0
-25 -26 -28 0
-25 -26 -27 0
-30 -31 -32 0
-29 -31 -32 0
-29 -30 -32 0
-29 -30 -31 0
-34 -35 -36 0
-33 -35 -36 0
-33 -34 -36 0
-33 -34 -35 0
-38 -39 -40 0
-37 -39 -40 0
-37 -38 -40 0
-37 -38 -39 0
-42 -43 -44 0
-41 -43 -44 0
-41 -42 -44 0
-41 -42 -43 0
-46 -47 -48 0
-45 -47 -48 0
-45 -46 -48 0
-45 -46 -47 0
-50 -51 -52 0
-49 -51 -52 0
-49 -50 -52 0
-49 -50 -51 0
-54 -55 -56 0
-53 -55 -56 0
-53 -54 -56 0
-53 -54 -55 0
-58 -59 -60 0
-57 -59 -60 0
-57 -58 -60 0
-57 -58 -59 0
-61 -62 -63 0
-61 -62 -64 0
-61 -62 -65 0
-61 -63 -64 0
-61 -63 -65 0
-61 -64 -65 0
-62 -63 -64 0
-62 -63 -65 0
-62 -64 -65 0
-63 -64 -65 0
52 30 7 0
12 30 7 0
12 52 7 0
12 52 30 0
32 1 24 0
38 1 24 0
38 32 24 0
38 32 1 0
3 27 45 0
33 27 45 0
33 3 45 0
33 3 27 0
13 47 31 0
57 47 31 0
57 13 31 0
57 13 47 0
39 64 25 0
6 64 25 0
6 39 25 0
6 39 64 0
20 60 28 0
41 60 28 0
41 20 28 0
41 20 60 0
19 8 15 0
2 8 15 0
2 19 15 0
2 19 8 0
29 35 54 0
42 35 54 0
42 29 54 0
42 29 35 0
14 65 21 0
51 65 21 0
51 14 21 0
51 14 65 0
63 46 23 0
43 46 23 0
43 63 23 0
43 63 46 0
59 4 62 0
56 4 62 0
56 59 62 0
56 59 4 0
22 26 53 0
10 26 53 0
10 22 53 0
10 22 26 0
40 11 16 0
44 11 16 0
44 40 16 0
44 40 11 0
5 49 58 0
34 49 58 0
34 5 58 0
34 5 49 0
9 17 36 0
61 17 36 0
61 9 36 0
61 9 17 0
55 50 37 0
55 50 18 0
55 50 48 0
55 37 18 0
55 37 48 0
55 18 48 0
50 37 18 0
50 37 48 0
50 18 48 0
37 18 48 0
